1 145 36 46 56 64 96 47 14 116 134 43 148 78 144 149 132 111 25 108 120 6 61 22 69 21 12 75 127 86 9 123 28 53 52 126 60 71 84 3 7 82 101 136 57 107 42 99 67 121 50 62 128 76 10 115 87 124 93 104 112 45 91 138 119 141 30 94 17 85 24 66 89 68 18 79 41 135 65 40 2 5 72 140 55 32 102 90 88 4 35 95 139 117 130 142 106 122 29 74 81 129 59 150 31 83 37 97 38 33 39 92 100 15 109 70 34 133 23 73 13 103 114 146 113 26 131 44 80 118 11 58 125 147 49 51 8 137 63 77 110 143 105 98 27 16 48 19 20 54
